c description: Random 3-CNF over 15 variables and 15 clauses
c generator: CNFgen (0.9.0)
c copyright: (C) 2012-2020 Massimo Lauria <massimo.lauria@uniroma1.it>
c url: https://massimolauria.net/cnfgen
c
p cnf 15 15
-4 -7 10 0
-1 -11 -15 0
1 10 -14 0
-2 -9 -14 0
7 -11 -13 0
3 -6 -15 0
5 -7 11 0
-1 -10 12 0
-4 10 15 0
6 -11 -15 0
-2 5 -14 0
2 -3 7 0
11 -14 15 0
-3 -6 -15 0
3 5 -15 0